============================[ Problem Statistics ]=============================|                                                                             ||  Number of variables:          4242                                         ||  Number of clauses:            9701                                         ||  Parse time:                   0.10 s                                       ||                                                                             |============================[ Search Statistics ]==============================| Conflicts |          ORIGINAL         |          LEARNT          | Progress ||           |    Vars  Clauses Literals |    Limit  Clauses Lit/Cl |          |==============================================================================================================================================================restarts              : 1conflicts             : 66             (412 /sec)decisions             : 152            (0.00 % random) (950 /sec)propagations          : 8167           (51044 /sec)conflict literals     : 3171           (95.93 % deleted)CPU time              : 0.16 sSATISFIABLE